Instance0
Gap
100.00%
100.00%
75.42%
73.26%
63.89%
57.35%
56.84%
54.00%
50.72%
49.77%
48.73%
45.06%
43.57%
42.27%
41.96%
41.52%
39.97%
39.51%
39.17%
34.48%
33.69%
33.11%
32.00%
29.95%
29.19%
27.55%
26.66%
25.79%
24.88%
24.29%
23.29%
22.07%
21.98%
21.66%
21.16%
20.94%
20.87%
20.60%
20.23%
19.90%
19.81%
19.29%
18.79%
18.62%
18.56%
18.35%
18.26%
18.05%
17.79%
17.64%
17.59%
17.44%
17.37%
17.25%
17.13%
16.93%
16.52%
16.47%
16.32%
16.28%
16.20%
16.11%
15.99%
15.99%
15.98%
15.94%
CPXPARAM_MIP_Cuts_LiftProj-Gomory-MIRCut:LiftProj 0
CPXPARAM_MIP_Cuts_LiftProj-Gomory-MIRCut:Gomory 30
CPXPARAM_MIP_Cuts_LiftProj-Gomory-MIRCut:MIRCut 0
Instance1
Gap
100.00%
100.00%
100.00%
99.28%
95.35%
76.76%
71.95%
55.83%
51.71%
51.00%
50.38%
47.33%
45.99%
43.78%
41.58%
40.96%
39.26%
39.26%
38.67%
37.19%
37.19%
35.27%
34.41%
34.15%
33.42%
33.04%
30.43%
29.47%
28.70%
28.43%
28.21%
27.01%
26.63%
26.10%
25.53%
25.02%
24.46%
24.25%
23.78%
23.19%
22.90%
22.49%
22.30%
22.21%
22.12%
22.07%
22.04%
21.70%
21.59%
21.47%
21.32%
21.26%
21.04%
20.99%
20.98%
20.97%
13.45%
CPXPARAM_MIP_Cuts_LiftProj-Gomory-MIRCut:LiftProj 5
CPXPARAM_MIP_Cuts_LiftProj-Gomory-MIRCut:Gomory 26
CPXPARAM_MIP_Cuts_LiftProj-Gomory-MIRCut:MIRCut 0
Instance2
Gap
100.00%
100.00%
68.57%
63.75%
58.92%
49.70%
47.46%
46.02%
44.48%
43.19%
37.90%
36.67%
36.36%
36.21%
26.23%
25.42%
25.02%
21.84%
21.19%
18.39%
17.86%
17.61%
17.39%
15.08%
14.75%
14.49%
13.90%
13.69%
13.38%
13.11%
12.91%
12.58%
12.32%
3.50%
3.45%
3.41%
3.23%
3.17%
3.11%
2.88%
2.87%
2.75%
2.75%
2.65%
2.65%
2.65%
1.58%
1.58%
1.45%
1.28%
1.25%
1.23%
1.20%
1.10%
1.04%
1.04%
1.04%
0
CPXPARAM_MIP_Cuts_LiftProj-Gomory-MIRCut:LiftProj 0
CPXPARAM_MIP_Cuts_LiftProj-Gomory-MIRCut:Gomory 4
CPXPARAM_MIP_Cuts_LiftProj-Gomory-MIRCut:MIRCut 2
Instance3
Gap
100.00%
100.00%
99.62%
99.49%
93.80%
83.36%
78.00%
74.37%
73.26%
22.05%
19.55%
10.79%
8.96%
6.26%
3.40%
1.19%
1.19%
0.25%
0.25%
0.25%
0.23%
0.20%
CPXPARAM_MIP_Cuts_LiftProj-Gomory-MIRCut:LiftProj 0
CPXPARAM_MIP_Cuts_LiftProj-Gomory-MIRCut:Gomory 6
CPXPARAM_MIP_Cuts_LiftProj-Gomory-MIRCut:MIRCut 3
Instance4
Gap
100.00%
100.00%
100.00%
76.86%
72.59%
68.63%
67.62%
62.36%
60.84%
60.35%
59.15%
57.72%
56.95%
54.97%
52.73%
50.37%
47.67%
45.20%
41.96%
41.42%
40.86%
39.85%
36.36%
36.16%
35.89%
35.41%
32.72%
31.85%
31.38%
30.50%
29.35%
29.13%
28.61%
28.04%
27.38%
27.22%
27.02%
26.89%
26.81%
26.34%
26.03%
16.80%
16.46%
16.46%
16.08%
15.75%
15.35%
15.06%
14.78%
14.61%
14.49%
11.29%
11.09%
10.95%
10.79%
10.69%
10.64%
10.09%
10.00%
9.89%
9.76%
9.69%
9.49%
9.43%
9.19%
9.11%
9.06%
9.01%
8.99%
CPXPARAM_MIP_Cuts_LiftProj-Gomory-MIRCut:LiftProj 0
CPXPARAM_MIP_Cuts_LiftProj-Gomory-MIRCut:Gomory 34
CPXPARAM_MIP_Cuts_LiftProj-Gomory-MIRCut:MIRCut 0
Instance5
Gap
100.00%
100.00%
100.00%
99.40%
99.04%
89.53%
74.35%
73.88%
73.64%
71.47%
70.90%
69.21%
69.12%
67.66%
61.82%
60.29%
60.15%
57.69%
44.80%
43.93%
42.28%
41.32%
40.72%
39.22%
38.96%
37.75%
36.77%
35.84%
35.50%
34.62%
34.14%
33.63%
33.29%
33.09%
32.99%
32.67%
32.37%
31.74%
31.33%
31.20%
31.14%
30.87%
30.55%
30.30%
30.28%
29.74%
29.65%
29.56%
29.47%
29.32%
29.16%
29.04%
28.97%
28.85%
28.81%
28.80%
28.74%
28.71%
22.88%
CPXPARAM_MIP_Cuts_LiftProj-Gomory-MIRCut:LiftProj 2
CPXPARAM_MIP_Cuts_LiftProj-Gomory-MIRCut:Gomory 33
CPXPARAM_MIP_Cuts_LiftProj-Gomory-MIRCut:MIRCut 0
Instance6
Gap
100.00%
100.00%
69.98%
65.46%
61.38%
61.34%
55.95%
54.64%
53.36%
47.70%
41.28%
38.57%
37.85%
34.18%
29.61%
27.15%
25.69%
24.52%
24.22%
24.22%
23.89%
23.00%
15.31%
14.87%
14.51%
14.32%
13.92%
13.39%
13.00%
4.06%
3.57%
3.03%
2.91%
2.75%
2.75%
2.56%
2.44%
CPXPARAM_MIP_Cuts_LiftProj-Gomory-MIRCut:LiftProj 0
CPXPARAM_MIP_Cuts_LiftProj-Gomory-MIRCut:Gomory 29
CPXPARAM_MIP_Cuts_LiftProj-Gomory-MIRCut:MIRCut 0
Instance7
Gap
100.00%
100.00%
100.00%
99.99%
94.79%
92.81%
92.23%
87.78%
85.81%
79.81%
65.80%
60.43%
59.31%
52.91%
50.16%
46.65%
44.07%
36.96%
36.91%
34.49%
33.89%
32.58%
29.82%
27.33%
26.96%
26.29%
25.92%
25.57%
24.79%
24.65%
24.53%
23.10%
22.19%
21.77%
21.50%
21.43%
20.44%
20.26%
19.79%
18.86%
18.06%
17.84%
17.60%
17.48%
17.32%
17.22%
16.98%
16.38%
16.26%
16.22%
16.11%
16.11%
16.02%
15.88%
15.25%
15.20%
13.29%
13.14%
13.03%
12.54%
12.41%
11.92%
11.87%
11.84%
11.79%
10.32%
8.54%
CPXPARAM_MIP_Cuts_LiftProj-Gomory-MIRCut:LiftProj 0
CPXPARAM_MIP_Cuts_LiftProj-Gomory-MIRCut:Gomory 31
CPXPARAM_MIP_Cuts_LiftProj-Gomory-MIRCut:MIRCut 0
Instance8
Gap
100.00%
100.00%
59.21%
53.34%
46.02%
44.57%
41.66%
41.34%
40.57%
40.38%
39.20%
38.43%
38.06%
37.86%
29.50%
29.20%
29.07%
28.89%
26.89%
26.75%
26.45%
25.98%
25.82%
25.61%
24.36%
23.76%
23.28%
12.19%
11.83%
11.07%
10.95%
10.89%
10.81%
10.74%
10.74%
10.71%
10.64%
10.58%
10.52%
10.47%
10.37%
10.32%
10.30%
10.21%
10.15%
9.65%
9.54%
9.50%
9.33%
9.08%
9.04%
9.00%
8.94%
8.94%
8.93%
CPXPARAM_MIP_Cuts_LiftProj-Gomory-MIRCut:LiftProj 0
CPXPARAM_MIP_Cuts_LiftProj-Gomory-MIRCut:Gomory 27
CPXPARAM_MIP_Cuts_LiftProj-Gomory-MIRCut:MIRCut 0
Instance9
Gap
100.00%
100.00%
100.00%
99.37%
99.21%
92.48%
89.82%
88.74%
84.95%
79.33%
76.58%
75.93%
74.11%
71.35%
69.15%
62.25%
61.36%
60.02%
59.65%
54.40%
54.05%
50.69%
48.41%
47.47%
45.43%
44.72%
43.89%
42.66%
41.91%
41.80%
40.37%
39.84%
39.23%
39.10%
38.93%
38.85%
38.72%
38.44%
37.43%
36.81%
36.50%
35.37%
33.70%
33.62%
33.49%
33.35%
33.28%
33.20%
33.17%
30.60%
30.35%
30.11%
29.57%
29.28%
28.88%
28.85%
28.27%
28.15%
27.79%
27.48%
27.33%
27.28%
27.03%
26.89%
26.82%
26.51%
26.35%
26.01%
25.77%
25.49%
24.70%
24.57%
24.51%
24.43%
24.08%
21.99%
21.64%
21.56%
21.30%
21.18%
21.07%
21.01%
20.88%
20.80%
20.77%
20.76%
19.95%
CPXPARAM_MIP_Cuts_LiftProj-Gomory-MIRCut:LiftProj 0
CPXPARAM_MIP_Cuts_LiftProj-Gomory-MIRCut:Gomory 38
CPXPARAM_MIP_Cuts_LiftProj-Gomory-MIRCut:MIRCut 0
Instance10
Gap
100.00%
100.00%
62.81%
59.89%
50.13%
43.42%
43.19%
40.51%
37.67%
37.40%
36.43%
34.63%
34.34%
33.02%
32.24%
32.12%
27.56%
25.43%
21.72%
21.28%
21.22%
19.84%
18.19%
17.65%
17.55%
17.24%
16.82%
12.29%
12.24%
12.06%
3.81%
3.65%
2.77%
2.76%
2.75%
2.75%
1.98%
1.34%
1.11%
0.79%
0.63%
0.47%
0.37%
0.36%
0.25%
CPXPARAM_MIP_Cuts_LiftProj-Gomory-MIRCut:LiftProj 0
CPXPARAM_MIP_Cuts_LiftProj-Gomory-MIRCut:Gomory 4
CPXPARAM_MIP_Cuts_LiftProj-Gomory-MIRCut:MIRCut 5
Instance11
Gap
100.00%
100.00%
99.97%
99.93%
94.52%
92.15%
90.03%
81.87%
80.17%
72.82%
69.96%
67.07%
64.44%
48.66%
43.91%
40.22%
39.33%
37.48%
35.85%
34.49%
31.72%
30.76%
29.88%
26.49%
24.65%
22.99%
21.79%
18.79%
18.47%
18.43%
17.91%
17.46%
10.23%
9.50%
9.29%
9.05%
7.88%
7.65%
7.47%
7.37%
4.69%
4.63%
4.49%
4.43%
4.41%
4.40%
3.15%
CPXPARAM_MIP_Cuts_LiftProj-Gomory-MIRCut:LiftProj 0
CPXPARAM_MIP_Cuts_LiftProj-Gomory-MIRCut:Gomory 28
CPXPARAM_MIP_Cuts_LiftProj-Gomory-MIRCut:MIRCut 0
Instance12
Gap
100.00%
100.00%
69.71%
64.56%
53.47%
52.82%
50.99%
42.83%
41.35%
40.36%
38.01%
35.93%
34.17%
32.80%
25.92%
24.49%
24.11%
23.10%
22.81%
21.77%
21.29%
19.82%
19.67%
19.29%
19.03%
18.94%
14.89%
14.75%
14.64%
14.06%
13.70%
13.39%
13.01%
12.27%
12.08%
11.82%
11.74%
11.62%
11.53%
11.31%
11.10%
10.97%
10.73%
10.63%
10.59%
6.02%
5.97%
5.86%
5.73%
5.70%
5.61%
5.58%
4.79%
CPXPARAM_MIP_Cuts_LiftProj-Gomory-MIRCut:LiftProj 0
CPXPARAM_MIP_Cuts_LiftProj-Gomory-MIRCut:Gomory 27
CPXPARAM_MIP_Cuts_LiftProj-Gomory-MIRCut:MIRCut 0
Instance13
Gap
100.00%
100.00%
100.00%
99.35%
99.30%
94.98%
91.55%
90.83%
88.21%
83.60%
80.04%
79.45%
75.35%
73.76%
68.27%
65.82%
63.39%
56.74%
55.23%
51.91%
42.99%
41.77%
40.86%
39.82%
38.66%
37.93%
37.59%
35.64%
34.77%
34.77%
33.72%
33.02%
32.01%
31.32%
28.17%
27.61%
27.61%
26.95%
24.93%
24.07%
23.80%
23.41%
23.15%
22.82%
22.45%
21.54%
21.30%
21.21%
20.93%
20.74%
20.50%
20.41%
20.39%
20.33%
20.30%
16.69%
CPXPARAM_MIP_Cuts_LiftProj-Gomory-MIRCut:LiftProj 1
CPXPARAM_MIP_Cuts_LiftProj-Gomory-MIRCut:Gomory 35
CPXPARAM_MIP_Cuts_LiftProj-Gomory-MIRCut:MIRCut 0
Instance14
Gap
100.00%
100.00%
67.25%
61.80%
56.10%
37.91%
31.12%
28.96%
26.95%
24.51%
24.02%
21.66%
20.80%
16.51%
14.80%
14.80%
9.79%
8.46%
7.78%
7.43%
6.60%
5.86%
5.72%
5.72%
5.43%
5.36%
5.02%
4.47%
4.08%
4.05%
3.87%
1.84%
1.84%
1.84%
1.32%
1.32%
1.23%
0.83%
0.56%
0.51%
0.47%
0.47%
0.46%
0.40%
0.39%
0.25%
CPXPARAM_MIP_Cuts_LiftProj-Gomory-MIRCut:LiftProj 0
CPXPARAM_MIP_Cuts_LiftProj-Gomory-MIRCut:Gomory 7
CPXPARAM_MIP_Cuts_LiftProj-Gomory-MIRCut:MIRCut 2
Instance15
Gap
100.00%
100.00%
99.71%
99.31%
92.62%
91.73%
86.74%
84.03%
78.96%
68.28%
67.11%
47.04%
42.62%
40.95%
37.46%
37.46%
35.90%
35.08%
30.03%
27.60%
23.74%
23.13%
22.63%
22.52%
21.79%
20.57%
20.03%
19.49%
18.83%
18.83%
17.85%
17.66%
16.59%
16.59%
16.43%
16.29%
16.24%
15.93%
15.37%
15.05%
14.09%
13.96%
13.95%
11.78%
CPXPARAM_MIP_Cuts_LiftProj-Gomory-MIRCut:LiftProj 0
CPXPARAM_MIP_Cuts_LiftProj-Gomory-MIRCut:Gomory 23
CPXPARAM_MIP_Cuts_LiftProj-Gomory-MIRCut:MIRCut 0
Instance16
Gap
100.00%
100.00%
60.68%
59.49%
51.21%
33.97%
33.68%
28.56%
27.92%
27.08%
25.10%
23.52%
21.65%
20.88%
20.57%
20.12%
20.04%
17.30%
17.00%
16.22%
16.13%
15.50%
15.39%
15.27%
14.89%
14.80%
14.67%
14.49%
14.40%
14.37%
14.28%
14.17%
13.92%
13.84%
13.76%
13.73%
13.59%
13.53%
13.45%
13.24%
13.19%
13.14%
13.11%
11.44%
11.42%
CPXPARAM_MIP_Cuts_LiftProj-Gomory-MIRCut:LiftProj 0
CPXPARAM_MIP_Cuts_LiftProj-Gomory-MIRCut:Gomory 27
CPXPARAM_MIP_Cuts_LiftProj-Gomory-MIRCut:MIRCut 1
Instance17
Gap
100.00%
100.00%
100.00%
99.43%
99.32%
94.30%
91.08%
89.50%
88.51%
84.80%
81.30%
76.94%
75.49%
74.55%
67.91%
65.29%
58.52%
52.68%
49.38%
48.33%
45.67%
43.65%
43.07%
42.12%
41.65%
39.56%
39.33%
38.63%
38.26%
37.61%
36.23%
35.43%
34.07%
33.73%
33.61%
33.47%
33.16%
32.67%
32.22%
31.82%
31.57%
31.48%
30.92%
30.66%
30.43%
29.92%
29.82%
29.46%
29.14%
28.92%
28.80%
28.73%
28.69%
28.69%
28.51%
28.34%
28.28%
28.15%
27.88%
27.67%
27.56%
27.37%
27.23%
27.23%
27.15%
27.14%
27.09%
CPXPARAM_MIP_Cuts_LiftProj-Gomory-MIRCut:LiftProj 0
CPXPARAM_MIP_Cuts_LiftProj-Gomory-MIRCut:Gomory 34
CPXPARAM_MIP_Cuts_LiftProj-Gomory-MIRCut:MIRCut 0
Instance18
Gap
100.00%
100.00%
57.84%
51.78%
44.78%
43.92%
43.29%
39.01%
36.41%
34.65%
33.78%
33.20%
32.76%
31.74%
31.24%
30.14%
28.34%
27.71%
27.57%
27.21%
26.93%
26.60%
26.16%
25.96%
25.23%
24.25%
24.06%
23.38%
23.27%
18.66%
18.57%
17.60%
17.27%
16.96%
15.53%
15.45%
6.93%
6.87%
6.69%
6.67%
5.93%
5.81%
5.79%
3.55%
3.30%
CPXPARAM_MIP_Cuts_LiftProj-Gomory-MIRCut:LiftProj 0
CPXPARAM_MIP_Cuts_LiftProj-Gomory-MIRCut:Gomory 28
CPXPARAM_MIP_Cuts_LiftProj-Gomory-MIRCut:MIRCut 0
Instance19
Gap
100.00%
100.00%
99.54%
99.29%
94.21%
89.58%
87.12%
86.91%
78.93%
68.41%
62.71%
52.42%
48.90%
46.33%
43.28%
41.22%
37.61%
35.38%
34.82%
31.09%
29.15%
26.66%
26.47%
26.18%
25.98%
25.79%
20.32%
20.09%
20.09%
19.54%
19.14%
19.12%
18.91%
18.70%
17.86%
15.79%
15.50%
14.41%
13.88%
10.92%
10.22%
9.78%
9.30%
8.45%
7.95%
7.73%
7.24%
7.02%
7.00%
6.89%
6.88%
6.74%
6.67%
6.39%
5.27%
4.41%
1.98%
1.37%
0.98%
0.79%
0.01%
CPXPARAM_MIP_Cuts_LiftProj-Gomory-MIRCut:LiftProj 0
CPXPARAM_MIP_Cuts_LiftProj-Gomory-MIRCut:Gomory 10
CPXPARAM_MIP_Cuts_LiftProj-Gomory-MIRCut:MIRCut 0
Instance20
Gap
100.00%
100.00%
89.26%
78.36%
62.07%
57.07%
56.36%
54.87%
53.92%
50.34%
48.82%
46.73%
41.40%
39.40%
31.22%
29.67%
26.78%
23.99%
22.28%
20.29%
19.69%
19.05%
18.27%
17.67%
17.32%
16.26%
15.95%
15.39%
15.04%
14.52%
14.15%
13.91%
13.80%
13.48%
13.34%
13.13%
12.87%
12.62%
12.37%
12.14%
11.86%
11.70%
11.50%
11.50%
11.16%
10.89%
10.81%
10.72%
10.58%
10.34%
10.22%
10.06%
10.03%
9.74%
9.60%
9.55%
9.53%
9.25%
CPXPARAM_MIP_Cuts_LiftProj-Gomory-MIRCut:LiftProj 0
CPXPARAM_MIP_Cuts_LiftProj-Gomory-MIRCut:Gomory 32
CPXPARAM_MIP_Cuts_LiftProj-Gomory-MIRCut:MIRCut 0
Instance21
Gap
100.00%
100.00%
100.00%
99.52%
98.54%
92.06%
89.92%
86.23%
85.19%
78.18%
75.71%
74.22%
69.28%
68.07%
66.44%
64.75%
58.63%
56.37%
54.97%
52.76%
50.83%
49.67%
47.17%
46.34%
44.75%
44.15%
42.98%
41.93%
41.42%
41.15%
40.39%
40.13%
39.45%
38.68%
37.24%
36.77%
36.02%
35.81%
35.34%
35.16%
34.69%
34.66%
34.38%
33.87%
33.87%
33.55%
33.55%
33.32%
33.11%
32.76%
32.56%
32.15%
32.08%
32.05%
31.78%
31.61%
31.55%
31.34%
31.31%
31.06%
30.69%
30.51%
30.39%
30.30%
30.04%
29.93%
29.83%
29.64%
29.61%
26.07%
CPXPARAM_MIP_Cuts_LiftProj-Gomory-MIRCut:LiftProj 3
CPXPARAM_MIP_Cuts_LiftProj-Gomory-MIRCut:Gomory 35
CPXPARAM_MIP_Cuts_LiftProj-Gomory-MIRCut:MIRCut 0
Instance22
Gap
100.00%
100.00%
88.62%
70.72%
54.96%
48.68%
39.21%
34.80%
30.03%
28.68%
22.21%
21.79%
18.01%
13.06%
9.01%
8.43%
7.90%
7.60%
5.87%
4.98%
4.62%
3.69%
3.64%
3.29%
2.65%
2.64%
2.64%
2.18%
CPXPARAM_MIP_Cuts_LiftProj-Gomory-MIRCut:LiftProj 0
CPXPARAM_MIP_Cuts_LiftProj-Gomory-MIRCut:Gomory 16
CPXPARAM_MIP_Cuts_LiftProj-Gomory-MIRCut:MIRCut 0
Instance23
Gap
100.00%
100.00%
99.78%
99.46%
92.87%
82.71%
80.19%
44.05%
40.56%
39.60%
33.42%
31.43%
26.72%
16.25%
14.92%
13.81%
13.53%
12.58%
11.95%
10.64%
8.31%
8.11%
7.77%
7.61%
6.92%
6.85%
6.59%
6.18%
6.11%
5.91%
5.67%
5.56%
5.47%
5.47%
5.19%
5.17%
5.17%
3.26%
3.26%
3.26%
2.74%
CPXPARAM_MIP_Cuts_LiftProj-Gomory-MIRCut:LiftProj 0
CPXPARAM_MIP_Cuts_LiftProj-Gomory-MIRCut:Gomory 11
CPXPARAM_MIP_Cuts_LiftProj-Gomory-MIRCut:MIRCut 3
Instance24
Gap
100.00%
100.00%
84.00%
78.89%
67.07%
63.36%
60.76%
59.82%
58.57%
53.88%
51.68%
47.93%
45.73%
42.62%
40.10%
39.96%
31.47%
29.40%
28.33%
27.91%
27.21%
26.82%
26.40%
26.31%
25.65%
25.33%
15.98%
15.11%
14.97%
14.80%
14.57%
14.24%
13.72%
7.62%
7.41%
7.05%
6.95%
6.54%
6.52%
6.51%
6.44%
CPXPARAM_MIP_Cuts_LiftProj-Gomory-MIRCut:LiftProj 0
CPXPARAM_MIP_Cuts_LiftProj-Gomory-MIRCut:Gomory 24
CPXPARAM_MIP_Cuts_LiftProj-Gomory-MIRCut:MIRCut 1
Instance25
Gap
100.00%
100.00%
99.59%
99.18%
94.97%
82.92%
77.64%
76.09%
74.71%
74.61%
73.49%
73.33%
72.30%
70.53%
68.74%
68.06%
67.52%
67.37%
66.78%
59.77%
57.21%
56.82%
55.33%
54.52%
53.21%
42.59%
42.25%
42.06%
41.61%
40.85%
40.44%
40.16%
39.75%
39.04%
37.74%
36.69%
36.22%
36.08%
35.30%
35.30%
35.11%
34.83%
34.68%
34.30%
34.25%
34.20%
34.12%
33.92%
33.67%
33.56%
33.52%
33.52%
33.08%
32.85%
32.83%
32.73%
32.51%
32.43%
32.35%
32.30%
32.26%
32.05%
32.02%
27.20%
CPXPARAM_MIP_Cuts_LiftProj-Gomory-MIRCut:LiftProj 6
CPXPARAM_MIP_Cuts_LiftProj-Gomory-MIRCut:Gomory 29
CPXPARAM_MIP_Cuts_LiftProj-Gomory-MIRCut:MIRCut 0
Instance26
Gap
100.00%
100.00%
84.48%
68.92%
56.67%
40.11%
30.29%
24.61%
22.84%
22.68%
20.97%
19.77%
19.15%
18.09%
15.39%
13.00%
7.73%
6.68%
4.95%
4.74%
4.24%
3.93%
3.18%
3.13%
2.86%
2.31%
2.24%
1.97%
1.57%
1.18%
1.13%
1.03%
0.98%
0.86%
0.75%
0.75%
0.73%
0.73%
0.73%
0.17%
0.17%
0.01%
CPXPARAM_MIP_Cuts_LiftProj-Gomory-MIRCut:LiftProj 0
CPXPARAM_MIP_Cuts_LiftProj-Gomory-MIRCut:Gomory 10
CPXPARAM_MIP_Cuts_LiftProj-Gomory-MIRCut:MIRCut 2
Instance27
Gap
100.00%
100.00%
99.81%
99.61%
97.04%
91.77%
78.97%
77.91%
35.93%
33.78%
30.04%
28.75%
25.91%
24.74%
24.35%
22.12%
21.08%
14.82%
14.77%
14.25%
13.33%
12.58%
12.49%
12.38%
12.38%
11.71%
11.07%
10.96%
10.62%
9.52%
9.52%
9.17%
6.55%
6.29%
6.11%
5.77%
4.66%
3.67%
3.17%
3.17%
3.17%
0.81%
0.81%
0.81%
0.26%
CPXPARAM_MIP_Cuts_LiftProj-Gomory-MIRCut:LiftProj 0
CPXPARAM_MIP_Cuts_LiftProj-Gomory-MIRCut:Gomory 10
CPXPARAM_MIP_Cuts_LiftProj-Gomory-MIRCut:MIRCut 2
Instance28
Gap
100.00%
100.00%
100.00%
69.66%
59.24%
55.88%
54.65%
49.82%
46.93%
42.20%
34.51%
31.63%
26.50%
25.94%
24.66%
23.38%
12.77%
11.68%
11.49%
11.20%
10.04%
9.82%
9.56%
9.49%
9.36%
8.77%
8.29%
7.96%
7.78%
7.68%
7.57%
7.34%
6.99%
6.88%
5.99%
5.96%
5.89%
5.89%
5.81%
4.10%
4.04%
3.95%
3.90%
3.89%
3.76%
CPXPARAM_MIP_Cuts_LiftProj-Gomory-MIRCut:LiftProj 0
CPXPARAM_MIP_Cuts_LiftProj-Gomory-MIRCut:Gomory 30
CPXPARAM_MIP_Cuts_LiftProj-Gomory-MIRCut:MIRCut 0
Instance29
Gap
100.00%
100.00%
100.00%
100.00%
94.73%
80.15%
74.99%
69.94%
67.03%
63.82%
61.28%
58.77%
56.69%
54.84%
53.91%
51.78%
49.36%
48.23%
47.49%
45.01%
42.71%
41.72%
40.92%
40.92%
40.34%
39.53%
38.28%
37.60%
36.90%
35.87%
35.46%
34.69%
34.41%
33.82%
33.50%
33.50%
32.95%
32.74%
31.99%
31.76%
31.27%
30.94%
30.35%
30.23%
29.86%
29.86%
29.78%
29.65%
29.57%
29.49%
29.47%
29.47%
29.41%
29.41%
29.26%
29.10%
29.01%
28.94%
28.91%
24.07%
CPXPARAM_MIP_Cuts_LiftProj-Gomory-MIRCut:LiftProj 2
CPXPARAM_MIP_Cuts_LiftProj-Gomory-MIRCut:Gomory 34
CPXPARAM_MIP_Cuts_LiftProj-Gomory-MIRCut:MIRCut 0
Instance30
Gap
100.00%
100.00%
69.10%
61.90%
52.91%
50.09%
49.03%
46.31%
40.32%
36.90%
34.19%
32.13%
31.02%
22.54%
22.19%
21.71%
13.76%
13.41%
12.46%
11.42%
10.40%
9.72%
9.30%
8.86%
6.90%
6.59%
6.16%
5.69%
5.55%
5.33%
4.10%
3.99%
3.94%
3.78%
3.76%
3.74%
3.46%
3.41%
CPXPARAM_MIP_Cuts_LiftProj-Gomory-MIRCut:LiftProj 0
CPXPARAM_MIP_Cuts_LiftProj-Gomory-MIRCut:Gomory 22
CPXPARAM_MIP_Cuts_LiftProj-Gomory-MIRCut:MIRCut 1
Instance31
Gap
100.00%
100.00%
99.75%
99.32%
88.94%
54.15%
52.72%
48.60%
45.72%
42.24%
27.07%
18.34%
11.20%
6.91%
2.98%
2.72%
1.83%
0.83%
0.83%
0.77%
0.77%
0.62%
CPXPARAM_MIP_Cuts_LiftProj-Gomory-MIRCut:LiftProj 0
CPXPARAM_MIP_Cuts_LiftProj-Gomory-MIRCut:Gomory 2
CPXPARAM_MIP_Cuts_LiftProj-Gomory-MIRCut:MIRCut 1
Instance32
Gap
100.00%
100.00%
100.00%
69.77%
63.45%
57.73%
38.30%
37.72%
37.07%
34.50%
34.03%
33.13%
32.45%
31.94%
30.43%
25.57%
23.93%
23.61%
23.23%
23.03%
22.63%
22.19%
21.78%
20.55%
19.70%
19.36%
19.28%
18.49%
17.66%
17.18%
16.56%
16.30%
16.20%
15.95%
15.75%
15.64%
15.50%
15.23%
14.80%
14.66%
14.51%
14.36%
14.32%
14.23%
13.76%
13.64%
13.50%
13.43%
13.37%
13.35%
13.34%
13.15%
CPXPARAM_MIP_Cuts_LiftProj-Gomory-MIRCut:LiftProj 3
CPXPARAM_MIP_Cuts_LiftProj-Gomory-MIRCut:Gomory 32
CPXPARAM_MIP_Cuts_LiftProj-Gomory-MIRCut:MIRCut 0
Instance33
Gap
100.00%
100.00%
100.00%
98.79%
92.07%
70.74%
65.44%
64.27%
60.99%
60.23%
59.22%
57.89%
55.62%
54.78%
52.12%
50.58%
37.73%
36.37%
32.40%
29.58%
26.79%
24.25%
24.00%
23.80%
17.65%
17.19%
16.36%
15.62%
15.12%
14.46%
13.77%
12.94%
12.94%
12.58%
12.27%
12.08%
11.55%
11.50%
11.42%
10.16%
9.66%
9.41%
9.27%
8.54%
8.42%
8.27%
8.19%
7.95%
7.49%
7.29%
7.02%
6.94%
6.90%
6.87%
6.87%
1.90%
0.31%
0
CPXPARAM_MIP_Cuts_LiftProj-Gomory-MIRCut:LiftProj 0
CPXPARAM_MIP_Cuts_LiftProj-Gomory-MIRCut:Gomory 4
CPXPARAM_MIP_Cuts_LiftProj-Gomory-MIRCut:MIRCut 2
Instance34
Gap
100.00%
100.00%
66.38%
51.74%
39.25%
36.54%
35.06%
33.22%
32.25%
27.04%
25.16%
25.15%
24.57%
24.03%
23.26%
22.62%
22.38%
22.24%
21.44%
20.66%
19.99%
19.65%
18.84%
15.63%
15.21%
14.44%
14.04%
13.96%
13.76%
13.47%
8.78%
8.59%
7.99%
7.90%
7.89%
7.79%
7.71%
7.70%
4.49%
4.49%
1.78%
1.78%
1.53%
0.87%
0.65%
0.59%
0.56%
0.06%
CPXPARAM_MIP_Cuts_LiftProj-Gomory-MIRCut:LiftProj 0
CPXPARAM_MIP_Cuts_LiftProj-Gomory-MIRCut:Gomory 5
CPXPARAM_MIP_Cuts_LiftProj-Gomory-MIRCut:MIRCut 3
Instance35
Gap
100.00%
100.00%
99.38%
98.77%
88.10%
77.55%
70.40%
35.95%
30.18%
25.94%
24.24%
21.35%
19.73%
18.53%
18.06%
16.41%
15.77%
15.63%
14.34%
12.72%
12.48%
12.38%
12.24%
12.19%
12.08%
11.87%
11.45%
10.71%
8.82%
8.63%
8.40%
8.39%
8.32%
8.26%
7.76%
7.66%
7.66%
4.08%
CPXPARAM_MIP_Cuts_LiftProj-Gomory-MIRCut:LiftProj 1
CPXPARAM_MIP_Cuts_LiftProj-Gomory-MIRCut:Gomory 19
CPXPARAM_MIP_Cuts_LiftProj-Gomory-MIRCut:MIRCut 3
Instance36
Gap
100.00%
100.00%
100.00%
85.27%
82.45%
71.87%
70.06%
65.99%
57.97%
56.96%
55.11%
51.05%
47.82%
45.97%
44.75%
43.88%
42.75%
38.58%
37.18%
32.25%
31.74%
30.47%
28.63%
27.79%
27.51%
27.09%
25.60%
25.08%
24.57%
17.54%
17.19%
16.19%
15.91%
15.59%
15.39%
15.22%
15.09%
14.45%
14.28%
14.03%
13.85%
13.54%
13.31%
13.20%
12.48%
12.38%
12.32%
11.83%
11.78%
11.50%
11.48%
11.42%
10.01%
9.95%
9.81%
9.77%
9.64%
9.62%
9.60%
CPXPARAM_MIP_Cuts_LiftProj-Gomory-MIRCut:LiftProj 2
CPXPARAM_MIP_Cuts_LiftProj-Gomory-MIRCut:Gomory 29
CPXPARAM_MIP_Cuts_LiftProj-Gomory-MIRCut:MIRCut 0
Instance37
Gap
100.00%
100.00%
100.00%
100.00%
100.00%
97.18%
86.45%
78.62%
66.29%
60.05%
59.22%
56.68%
56.01%
53.21%
52.82%
52.69%
50.41%
50.17%
49.58%
48.58%
48.44%
48.15%
47.17%
46.38%
46.22%
45.92%
42.76%
40.99%
40.48%
40.29%
39.49%
38.83%
38.53%
37.98%
32.79%
32.40%
31.30%
30.68%
30.13%
29.52%
29.35%
29.26%
29.24%
29.08%
29.01%
28.97%
28.97%
28.94%
28.92%
28.65%
28.57%
28.51%
28.33%
28.31%
20.13%
CPXPARAM_MIP_Cuts_LiftProj-Gomory-MIRCut:LiftProj 6
CPXPARAM_MIP_Cuts_LiftProj-Gomory-MIRCut:Gomory 31
CPXPARAM_MIP_Cuts_LiftProj-Gomory-MIRCut:MIRCut 0
Instance38
Gap
100.00%
100.00%
78.46%
58.43%
34.01%
30.16%
24.30%
23.52%
20.10%
16.92%
15.01%
14.00%
13.76%
13.54%
12.96%
11.91%
11.45%
10.47%
8.93%
7.84%
6.39%
6.33%
6.10%
6.00%
5.10%
4.91%
4.75%
4.27%
4.17%
3.92%
3.63%
3.56%
3.53%
3.27%
3.21%
3.14%
3.10%
3.03%
2.88%
2.83%
2.82%
2.69%
2.61%
2.21%
1.98%
1.90%
1.90%
1.68%
CPXPARAM_MIP_Cuts_LiftProj-Gomory-MIRCut:LiftProj 0
CPXPARAM_MIP_Cuts_LiftProj-Gomory-MIRCut:Gomory 17
CPXPARAM_MIP_Cuts_LiftProj-Gomory-MIRCut:MIRCut 0
Instance39
Gap
100.00%
100.00%
99.77%
99.55%
94.79%
74.59%
56.86%
52.37%
47.63%
45.90%
31.95%
31.94%
29.62%
27.08%
26.38%
23.48%
22.01%
21.09%
20.94%
20.66%
18.11%
15.01%
14.79%
13.64%
12.91%
10.62%
9.83%
9.21%
7.74%
7.02%
6.93%
5.88%
4.54%
4.25%
3.74%
3.74%
3.72%
3.72%
0.28%
0
CPXPARAM_MIP_Cuts_LiftProj-Gomory-MIRCut:LiftProj 0
CPXPARAM_MIP_Cuts_LiftProj-Gomory-MIRCut:Gomory 4
CPXPARAM_MIP_Cuts_LiftProj-Gomory-MIRCut:MIRCut 0
